7
	1 2	3 1	1 1	1 5	1 3	2 1	1 4
0	1	 1	 0	 0	 0	 0	 0	 
1	1	 1	 0	 0	 0	 0	 0	 
2	1	 1	 0	 0	 0	 0	 0	 
3	1	 1	 0	 0	 0	 0	 0	 
4	0	 0	 0	 0	 0	 0	 0	 
5	1	 1	 0	 0	 0	 0	 0	 
6	1	 1	 0	 0	 0	 0	 0	 
7	1	 1	 0	 0	 0	 0	 0	 
8	0	 0	 0	 0	 0	 0	 1	 
9	1	 1	 0	 0	 0	 0	 0	 
10	1	 1	 0	 0	 0	 0	 0	 
11	1	 1	 0	 0	 0	 0	 0	 
12	0	 0	 0	 0	 0	 1	 0	 
13	1	 1	 0	 0	 0	 0	 0	 
14	1	 1	 0	 0	 0	 0	 0	 
15	1	 1	 0	 0	 0	 0	 0	 
16	0	 0	 0	 0	 0	 1	 1	 
17	1	 1	 0	 0	 0	 0	 0	 
18	1	 1	 0	 0	 0	 0	 0	 
19	1	 1	 0	 0	 0	 0	 0	 
20	0	 0	 0	 0	 1	 0	 0	 
21	1	 1	 0	 0	 0	 0	 0	 
22	1	 1	 0	 0	 0	 0	 0	 
23	1	 1	 0	 0	 0	 0	 0	 
24	0	 0	 0	 0	 1	 0	 1	 
25	1	 1	 0	 0	 0	 0	 0	 
26	1	 1	 0	 0	 0	 0	 0	 
27	1	 1	 0	 0	 0	 0	 0	 
28	0	 0	 0	 0	 1	 1	 0	 
29	1	 1	 0	 0	 0	 0	 0	 
30	1	 1	 0	 0	 0	 0	 0	 
31	1	 1	 0	 0	 0	 0	 0	 
32	0	 0	 0	 0	 1	 1	 1	 
33	1	 1	 0	 0	 0	 0	 0	 
34	1	 1	 0	 0	 0	 0	 0	 
35	1	 1	 0	 0	 0	 0	 0	 
36	0	 0	 0	 1	 0	 0	 0	 
37	1	 1	 0	 0	 0	 0	 0	 
38	1	 1	 0	 0	 0	 0	 0	 
39	1	 1	 0	 0	 0	 0	 0	 
40	0	 0	 0	 1	 0	 0	 1	 
41	1	 1	 0	 0	 0	 0	 0	 
42	1	 1	 0	 0	 0	 0	 0	 
43	1	 1	 0	 0	 0	 0	 0	 
44	0	 0	 0	 1	 0	 1	 0	 
45	1	 1	 0	 0	 0	 0	 0	 
46	1	 1	 0	 0	 0	 0	 0	 
47	1	 1	 0	 0	 0	 0	 0	 
48	0	 0	 0	 1	 0	 1	 1	 
49	0	 0	 0	 1	 1	 0	 0	 
50	1	 1	 0	 0	 0	 0	 0	 
51	1	 1	 0	 0	 0	 0	 0	 
52	1	 1	 0	 0	 0	 0	 0	 
53	0	 0	 0	 1	 1	 0	 1	 
54	1	 1	 0	 0	 0	 0	 0	 
55	1	 1	 0	 0	 0	 0	 0	 
56	1	 1	 0	 0	 0	 0	 0	 
57	0	 1	 1	 0	 0	 0	 0	 
58	0	 0	 0	 1	 1	 1	 0	 
59	0	 1	 1	 0	 0	 0	 0	 
60	0	 0	 0	 1	 1	 1	 1	 
61	0	 1	 1	 0	 0	 0	 0	 
62	0	 1	 1	 1	 0	 0	 0	 
63	0	 1	 1	 1	 0	 0	 0	 
64	0	 1	 1	 1	 0	 0	 0	 
65	0	 1	 1	 1	 0	 0	 0	 
66	0	 0	 1	 0	 0	 0	 0	 
67	0	 1	 1	 1	 0	 0	 0	 
68	0	 1	 1	 1	 0	 0	 0	 
69	0	 1	 1	 1	 0	 0	 0	 
70	0	 0	 1	 0	 0	 0	 1	 
71	0	 1	 1	 1	 0	 0	 0	 
72	0	 1	 1	 1	 0	 0	 0	 
73	0	 1	 1	 1	 0	 0	 0	 
74	0	 0	 1	 0	 0	 1	 0	 
75	0	 0	 1	 0	 0	 1	 1	 
76	0	 0	 0	 0	 0	 1	 0	 
77	0	 0	 1	 0	 1	 0	 0	 
78	0	 0	 1	 0	 1	 0	 1	 
79	0	 0	 0	 0	 0	 1	 0	 
80	0	 0	 0	 0	 0	 1	 0	 
81	0	 0	 0	 0	 0	 1	 0	 
82	0	 0	 1	 0	 1	 1	 0	 
83	0	 0	 0	 0	 0	 1	 0	 
84	0	 1	 1	 0	 0	 1	 0	 
85	0	 1	 1	 0	 0	 1	 0	 
86	0	 1	 1	 0	 0	 1	 0	 
87	0	 1	 1	 0	 0	 1	 0	 
88	0	 0	 1	 0	 1	 1	 1	 
89	0	 1	 1	 0	 0	 1	 0	 
90	0	 1	 1	 0	 0	 1	 0	 
91	0	 1	 1	 0	 0	 1	 0	 
92	0	 0	 1	 1	 0	 0	 0	 
93	0	 1	 1	 0	 0	 1	 0	 
94	0	 1	 1	 0	 0	 1	 0	 
95	0	 0	 1	 1	 0	 0	 1	 
96	0	 1	 1	 0	 0	 1	 0	 
97	0	 1	 1	 0	 0	 1	 0	 
98	0	 1	 1	 0	 0	 1	 0	 
99	0	 0	 1	 1	 0	 1	 0	 
100	0	 1	 1	 0	 0	 1	 0	 
101	0	 1	 1	 0	 0	 1	 0	 
102	0	 1	 1	 0	 0	 1	 0	 
103	0	 0	 1	 1	 0	 1	 1	 
104	0	 1	 1	 0	 0	 1	 0	 
105	0	 1	 1	 0	 0	 1	 0	 
106	0	 1	 1	 0	 0	 1	 0	 
107	0	 0	 1	 1	 1	 0	 0	 
108	0	 1	 1	 0	 0	 1	 0	 
109	0	 1	 1	 0	 0	 1	 0	 
110	0	 1	 1	 0	 1	 1	 0	 
111	0	 1	 1	 0	 1	 1	 0	 
112	0	 1	 1	 0	 1	 1	 0	 
113	0	 1	 1	 0	 1	 1	 0	 
114	0	 0	 1	 1	 1	 0	 1	 
115	0	 1	 1	 0	 1	 1	 0	 
116	0	 1	 1	 0	 1	 1	 0	 
117	0	 1	 1	 0	 1	 1	 0	 
118	0	 0	 1	 1	 1	 1	 0	 
119	0	 1	 1	 0	 1	 1	 0	 
120	0	 1	 1	 0	 1	 1	 0	 
121	0	 1	 1	 0	 1	 1	 0	 
122	0	 0	 1	 1	 1	 1	 1	 
123	0	 1	 1	 0	 1	 1	 0	 
124	0	 1	 1	 0	 1	 1	 0	 
125	0	 1	 1	 0	 1	 1	 0	 
126	0	 1	 0	 0	 0	 0	 0	 
127	0	 1	 1	 0	 1	 1	 0	 
128	0	 1	 1	 0	 1	 1	 0	 
129	0	 1	 1	 0	 1	 1	 0	 
130	0	 1	 0	 0	 0	 0	 1	 
131	0	 1	 1	 0	 1	 1	 0	 
132	0	 1	 1	 0	 1	 1	 0	 
133	0	 1	 1	 0	 1	 1	 0	 
134	0	 1	 0	 0	 0	 1	 0	 
135	0	 1	 1	 0	 1	 1	 0	 
136	0	 1	 1	 0	 1	 1	 0	 
137	0	 1	 0	 0	 0	 1	 1	 
138	0	 0	 0	 0	 0	 0	 0	 
139	0	 0	 0	 0	 0	 0	 0	 
140	0	 0	 0	 0	 0	 0	 0	 
141	0	 1	 0	 0	 1	 0	 0	 
142	0	 0	 0	 0	 0	 0	 0	 
143	0	 0	 0	 0	 0	 0	 0	 
144	0	 0	 0	 0	 0	 0	 0	 
145	0	 1	 0	 0	 1	 0	 1	 
146	0	 0	 0	 0	 0	 0	 0	 
147	0	 0	 0	 0	 0	 0	 0	 
148	0	 0	 0	 0	 0	 0	 0	 
149	0	 1	 0	 0	 1	 1	 0	 
150	0	 0	 0	 0	 0	 0	 0	 
151	0	 0	 0	 0	 0	 0	 0	 
152	0	 1	 0	 0	 1	 1	 1	 
153	0	 0	 0	 0	 0	 0	 0	 
154	0	 0	 0	 0	 0	 0	 0	 
155	0	 0	 0	 0	 0	 0	 0	 
156	0	 1	 0	 1	 0	 0	 0	 
157	0	 0	 0	 0	 0	 0	 0	 
158	0	 0	 0	 0	 0	 0	 0	 
159	0	 1	 0	 1	 0	 0	 1	 
160	0	 0	 0	 0	 0	 0	 0	 
161	0	 0	 0	 0	 0	 0	 0	 
162	0	 0	 0	 0	 0	 0	 0	 
163	0	 1	 0	 1	 0	 1	 0	 
164	0	 0	 0	 0	 0	 0	 0	 
165	0	 0	 0	 0	 0	 0	 0	 
166	0	 0	 0	 0	 0	 0	 0	 
167	0	 1	 0	 1	 0	 1	 1	 
168	0	 0	 0	 0	 0	 0	 0	 
169	0	 0	 0	 0	 0	 0	 0	 
170	0	 0	 0	 0	 0	 0	 0	 
171	0	 1	 0	 1	 1	 0	 0	 
172	0	 0	 0	 0	 0	 0	 0	 
173	0	 1	 0	 1	 1	 0	 1	 
174	0	 1	 0	 1	 1	 1	 0	 
175	0	 0	 0	 0	 0	 0	 0	 
176	0	 0	 0	 0	 0	 0	 0	 
177	0	 0	 0	 0	 0	 0	 0	 
178	0	 1	 0	 1	 1	 1	 1	 
179	0	 0	 0	 0	 0	 0	 0	 
180	0	 0	 0	 0	 0	 0	 0	 
181	0	 0	 0	 0	 0	 0	 0	 
182	0	 1	 1	 0	 0	 0	 1	 
183	0	 0	 0	 0	 0	 0	 0	 
184	0	 0	 0	 0	 0	 0	 0	 
185	0	 0	 0	 0	 0	 0	 0	 
186	0	 1	 1	 0	 0	 1	 1	 
187	0	 0	 0	 0	 0	 0	 0	 
188	0	 0	 0	 0	 0	 0	 0	 
189	0	 0	 0	 0	 0	 0	 0	 
190	0	 1	 1	 0	 1	 0	 0	 
191	0	 0	 0	 0	 0	 0	 0	 
192	0	 0	 0	 0	 0	 0	 0	 
193	0	 0	 0	 0	 0	 0	 0	 
194	0	 1	 1	 0	 1	 0	 1	 
195	0	 0	 0	 0	 0	 0	 0	 
196	0	 0	 0	 0	 0	 0	 0	 
197	0	 0	 0	 0	 0	 0	 0	 
198	0	 1	 1	 0	 1	 1	 1	 
199	0	 1	 1	 1	 0	 0	 1	 
200	0	 0	 0	 0	 0	 0	 0	 
201	0	 0	 0	 0	 0	 0	 0	 
202	0	 0	 0	 0	 0	 0	 0	 
203	0	 1	 1	 1	 0	 1	 0	 
204	0	 0	 0	 0	 0	 0	 0	 
205	0	 1	 1	 1	 0	 1	 1	 
206	0	 0	 0	 0	 0	 0	 0	 
207	0	 0	 0	 0	 0	 0	 0	 
208	0	 0	 0	 0	 0	 0	 0	 
209	0	 1	 1	 1	 1	 0	 0	 
210	0	 0	 0	 0	 0	 0	 0	 
211	0	 0	 0	 0	 0	 0	 0	 
212	0	 0	 0	 0	 0	 0	 0	 
213	0	 1	 1	 1	 1	 0	 1	 
214	0	 0	 0	 0	 0	 0	 0	 
215	0	 0	 0	 0	 0	 0	 0	 
216	0	 0	 0	 0	 0	 0	 0	 
217	0	 1	 1	 1	 1	 1	 0	 
